results/real/sos1/jan_15_250.out
Version identifier: 22.1.1.0 | 2022-11-28 | 9160aff4d
CPXPARAM_Threads                                 1
CPXPARAM_MIP_Strategy_VariableSelect             3
CPXPARAM_TimeLimit                               599.99998208299996
1 of 1 MIP starts provided solutions.
MIP start 'm1' defined initial solution with objective 120.0000.
Tried aggregator 1 time.
MIP Presolve eliminated 265 rows and 750 columns.
MIP Presolve modified 34 coefficients.
Reduced MIP has 1248 rows, 2500 columns, and 48491 nonzeros.
Reduced MIP has 2500 binaries, 0 generals, 0 SOSs, and 0 indicators.
Presolve time = 0.03 sec. (84.07 ticks)
Probing time = 0.01 sec. (10.35 ticks)
Tried aggregator 1 time.
Detecting symmetries...
MIP Presolve modified 8 coefficients.
Reduced MIP has 1248 rows, 2500 columns, and 48639 nonzeros.
Reduced MIP has 2500 binaries, 0 generals, 0 SOSs, and 0 indicators.
Presolve time = 0.03 sec. (75.72 ticks)
Probing time = 0.01 sec. (10.37 ticks)
Clique table members: 745.
MIP emphasis: balance optimality and feasibility.
MIP search method: dynamic search.
Parallel mode: none, using 1 thread.
Root relaxation solution time = 0.01 sec. (16.89 ticks)

        Nodes                                         Cuts/
   Node  Left     Objective  IInf  Best Integer    Best Bound    ItCnt     Gap

*     0+    0                          120.0000    31375.0000              --- 
*     0     0      integral     0      250.0000      250.0000      379    0.00%
Elapsed time = 0.10 sec. (225.27 ticks, tree = 0.00 MB, solutions = 2)

Root node processing (before b&c):
  Real time             =    0.10 sec. (225.39 ticks)
Sequential b&c:
  Real time             =    0.00 sec. (0.00 ticks)
                          ------------
Total (root+branch&cut) =    0.10 sec. (225.39 ticks)
Primal:	250
Dual:	250
Status:	Optimal
Time:	0.11
Sequence:
	0
	1
	4
	8
	9
	11
	4
	4
	0
	4
	4
	11
	9
	4
	4
	2
	4
	9
	0
	9
	1
	4
	9
	9
	0
	9
	9
	0
	9
	4
	0
	9
	11
	9
	9
	9
	9
	0
	11
	9
	0
	9
	5
	5
	9
	5
	4
	9
	9
	9
	9
	9
	4
	5
	9
	4
	4
	0
	4
	11
	0
	1
	4
	1
	5
	0
	4
	1
	5
	4
	0
	9
	5
	0
	4
	5
	0
	4
	4
	1
	1
	4
	4
	0
	1
	4
	0
	1
	4
	5
	0
	4
	4
	0
	4
	9
	5
	4
	0
	4
	4
	0
	4
	5
	0
	9
	4
	4
	9
	4
	4
	9
	4
	0
	5
	4
	0
	4
	4
	9
	0
	4
	9
	4
	4
	0
	4
	9
	0
	9
	9
	9
	9
	9
	9
	5
	1
	5
	2
	11
	9
	9
	0
	9
	4
	9
	5
	9
	9
	9
	9
	9
	11
	5
	9
	9
	1
	1
	0
	9
	9
	0
	3
	9
	0
	4
	1
	0
	4
	1
	0
	9
	1
	0
	9
	1
	0
	9
	5
	0
	4
	4
	9
	0
	4
	9
	0
	9
	9
	0
	1
	4
	4
	0
	9
	9
	0
	9
	3
	0
	9
	9
	0
	9
	5
	0
	9
	3
	9
	4
	4
	9
	9
	4
	0
	4
	4
	0
	9
	5
	0
	4
	9
	1
	1
	1
	4
	1
	1
	1
	9
	1
	0
	4
	1
	9
	1
	1
	1
	2
	5
	1
	1
	2
	1
	1
	2
	4
	4
	2
